n_res = 2;
rcap = [30, 25];
rtype = [1, 1];
n_tasks = 14;
modes = [ {1, 2, 3}, {4, 5, 6}, {7, 8, 9}, {10, 11, 12}, {13, 14, 15}, {16, 17, 18}, {19, 20, 21}, {22, 23, 24}, {25, 26, 27}, {28, 29, 30}, {31, 32, 33}, {34, 35, 36}, {37, 38, 39}, {40, 41, 42} ];
succ = [ {7, 9, 11}, {8, 9, 12}, {4, 8, 10}, {5}, {6, 9, 11}, {7}, {12, 13, 14}, {14}, {13}, {11, 12}, {13, 14}, {}, {}, {} ];
n_opt = 42;
dur = [6, 7, 8, 3, 7, 7, 1, 3, 6, 4, 8, 10, 3, 4, 7, 2, 3, 6, 2, 10, 10, 2, 3, 3, 1, 5, 7, 5, 7, 9, 5, 9, 10, 8, 8, 9, 2, 4, 9, 3, 5, 8];
rreq = [| 10, 10,  9,  6,  5,  4,  7,  7,  5,  9,  9,  8, 10,  6,  6,  7,  7,  6,  8,  7,  8,  9,  8,  5,  8,  7,  5,  2,  2,  1, 10,  8,  7,  5,  6,  3,  6,  6,  3,  7,  7,  6
        |  6,  4,  4,  8,  4,  5,  7,  5,  5,  4,  3,  3,  2,  2,  1,  8,  7,  6,  4,  4,  3,  9,  5,  6,  9,  6,  5,  6,  4,  4,  7,  6,  3,  6,  5,  2,  4,  2,  1,  5,  4,  2 |];
